data/solutions/recovery/wellformed/moderate/binding/wellformed_moderate_instance76/21.sol
Elapsed time: 0.03
Upper bound: 2046.0
Planning weighted value: 136346.0
C[0]=2046.0
C[1]=1925.0
C[2]=1895.0
C[3]=1869.0
C[4]=1546.0
C[5]=0.0
y[0]=2
y[1]=0
y[2]=2
y[3]=4
y[4]=3
y[5]=1
y[6]=3
y[7]=4
y[8]=3
y[9]=1
y[10]=0
y[11]=1
y[12]=1
y[13]=2
y[14]=1
y[15]=1
y[16]=0
y[17]=4
y[18]=1
y[19]=3
