data/solutions/recovery/wellformed/moderate/binding/wellformed_moderate_instance76/21.log

Log started (V12.6.3.0) Fri Apr 20 17:49:45 2018

New value for default parallel thread count: 1

Problem '/tmp/tmpFUQbDY.pyomo.lp' read.
Read time = 0.00 sec. (0.03 ticks)

Problem name         : /tmp/tmpFUQbDY.pyomo.lp
Objective sense      : Minimize
Variables            :     128  [Nneg: 1,  Binary: 120,  General Integer: 7]
Objective nonzeros   :       1
Linear constraints   :      54  [Less: 26,  Equal: 28]
  Nonzeros           :    2073
  RHS nonzeros       :      21

Variables            : Min LB: 0.000000         Max UB: 1.000000       
Objective nonzeros   : Min   : 1.000000         Max   : 1.000000       
Linear constraints   :
  Nonzeros           : Min   : 1.000000         Max   : 971.0000       
  RHS nonzeros       : Min   : 1.000000         Max   : 1.000000       
Tried aggregator 2 times.
MIP Presolve eliminated 49 rows and 123 columns.
MIP Presolve modified 6 coefficients.
Aggregator did 5 substitutions.
All rows and columns eliminated.
Presolve time = 0.00 sec. (0.20 ticks)

Root node processing (before b&c):
  Real time             =    0.00 sec. (0.26 ticks)
Sequential b&c:
  Real time             =    0.00 sec. (0.00 ticks)
                          ------------
Total (root+branch&cut) =    0.00 sec. (0.26 ticks)

Solution pool: 1 solution saved.

MIP - Integer optimal solution:  Objective =  2.0460000000e+03
Solution time =    0.00 sec.  Iterations = 0  Nodes = 0
Deterministic time = 0.26 ticks  (146.31 ticks/sec)


Incumbent solution written to file '/tmp/tmpRcLfGg.cplex.sol'.

Log started (V12.6.3.0) Fri Apr 20 17:52:49 2018

New value for default parallel thread count: 1

Problem '/tmp/tmpPC1lLv.pyomo.lp' read.
Read time = 0.00 sec. (0.03 ticks)

Problem name         : /tmp/tmpPC1lLv.pyomo.lp
Objective sense      : Minimize
Variables            :     128  [Nneg: 1,  Binary: 120,  General Integer: 7]
Objective nonzeros   :       1
Linear constraints   :      54  [Less: 26,  Equal: 28]
  Nonzeros           :    2073
  RHS nonzeros       :      21

Variables            : Min LB: 0.000000         Max UB: 1.000000       
Objective nonzeros   : Min   : 1.000000         Max   : 1.000000       
Linear constraints   :
  Nonzeros           : Min   : 1.000000         Max   : 971.0000       
  RHS nonzeros       : Min   : 1.000000         Max   : 1.000000       
Tried aggregator 2 times.
MIP Presolve eliminated 49 rows and 123 columns.
MIP Presolve modified 6 coefficients.
Aggregator did 5 substitutions.
All rows and columns eliminated.
Presolve time = 0.00 sec. (0.20 ticks)

Root node processing (before b&c):
  Real time             =    0.00 sec. (0.26 ticks)
Sequential b&c:
  Real time             =    0.00 sec. (0.00 ticks)
                          ------------
Total (root+branch&cut) =    0.00 sec. (0.26 ticks)

Solution pool: 1 solution saved.

MIP - Integer optimal solution:  Objective =  2.0460000000e+03
Solution time =    0.00 sec.  Iterations = 0  Nodes = 0
Deterministic time = 0.26 ticks  (259.12 ticks/sec)


Incumbent solution written to file '/tmp/tmp3dg9f6.cplex.sol'.
